Route 1: 15 121 69 37 17 100 94 33 43 4 107 122
Route 2: 42 111 55 7 116 96 36 5 68 153 57 18
Route 3: 20 45 125 131 47 87 112 133 103 97 157 25
Route 4: 51 32 155 99 124 54 145 86 141 143 129 27
Route 5: 19 108 156 23 31 75 80 34 85 83 89 44
Route 6: 58 48 71 93 127 6 154 3 78 12 46 84
Route 7: 22 136 74 104 66 88 98 63 24 134 132 56
Route 8: 102 62 144 39 70 76 21 50 119 148 16 123
Route 9: 73 35 49 114 101 52 91 142 65 64 92 130
Route 10: 29 67 95 105 128 146 81 147 41 109 10 79
Route 11: 77 120 13 90 113 137 2 118 126 140 8 138
Route 12: 82 110 61 115 30 59 40 11 135 53 139 26
Route 13: 152 14 60 151 9 150 149 72 28 117 38 106
Cost 18064.46
